c "764469.clq"
p edge 100 1344
e 1 17
e 1 18
e 1 19
e 1 20
e 1 21
e 1 22
e 1 23
e 1 24
e 1 26
e 1 31
e 1 34
e 1 35
e 1 36
e 1 42
e 1 54
e 1 57
e 1 69
e 1 89
e 1 93
e 2 17
e 2 18
e 2 19
e 2 20
e 2 21
e 2 23
e 2 32
e 2 37
e 2 39
e 2 42
e 2 45
e 2 46
e 2 47
e 2 49
e 2 53
e 2 57
e 2 61
e 2 65
e 2 78
e 2 80
e 2 85
e 2 92
e 2 97
e 3 17
e 3 18
e 3 19
e 3 20
e 3 21
e 3 22
e 3 24
e 3 25
e 3 26
e 3 27
e 3 29
e 3 30
e 3 32
e 3 37
e 3 39
e 3 41
e 3 43
e 3 45
e 3 47
e 3 50
e 3 53
e 3 56
e 3 57
e 3 58
e 3 59
e 3 62
e 3 71
e 3 75
e 3 77
e 3 80
e 3 81
e 3 86
e 3 87
e 3 98
e 3 99
e 4 17
e 4 18
e 4 19
e 4 20
e 4 21
e 4 22
e 4 23
e 4 25
e 4 26
e 4 27
e 4 29
e 4 30
e 4 32
e 4 33
e 4 36
e 4 37
e 4 38
e 4 40
e 4 44
e 4 49
e 4 55
e 4 56
e 4 65
e 4 67
e 4 70
e 4 77
e 4 79
e 4 82
e 4 96
e 5 17
e 5 18
e 5 19
e 5 21
e 5 22
e 5 23
e 5 24
e 5 25
e 5 27
e 5 28
e 5 32
e 5 34
e 5 39
e 5 40
e 5 42
e 5 45
e 5 75
e 5 78
e 5 79
e 5 80
e 5 85
e 5 90
e 5 96
e 5 98
e 6 17
e 6 18
e 6 19
e 6 20
e 6 21
e 6 23
e 6 24
e 6 30
e 6 41
e 6 50
e 6 54
e 6 56
e 6 58
e 6 65
e 6 66
e 6 85
e 6 93
e 6 94
e 6 96
e 6 97
e 7 17
e 7 20
e 7 21
e 7 24
e 7 30
e 7 33
e 7 58
e 7 62
e 7 69
e 7 85
e 7 89
e 7 91
e 8 17
e 8 18
e 8 19
e 8 20
e 8 21
e 8 22
e 8 23
e 8 24
e 8 26
e 8 48
e 8 51
e 8 53
e 8 63
e 8 67
e 8 68
e 8 72
e 8 76
e 8 79
e 8 81
e 8 83
e 8 88
e 8 90
e 8 94
e 9 17
e 9 18
e 9 19
e 9 20
e 9 23
e 9 25
e 9 27
e 9 28
e 9 29
e 9 30
e 9 33
e 9 35
e 9 36
e 9 39
e 9 40
e 9 43
e 9 45
e 9 49
e 9 50
e 9 53
e 9 55
e 9 58
e 9 72
e 9 88
e 9 90
e 9 97
e 10 17
e 10 18
e 10 19
e 10 21
e 10 22
e 10 25
e 10 26
e 10 32
e 10 36
e 10 39
e 10 49
e 10 50
e 10 53
e 10 62
e 10 66
e 10 72
e 10 89
e 11 17
e 11 18
e 11 19
e 11 20
e 11 22
e 11 23
e 11 28
e 11 29
e 11 31
e 11 32
e 11 34
e 11 78
e 11 89
e 11 93
e 11 96
e 12 17
e 12 18
e 12 19
e 12 20
e 12 21
e 12 22
e 12 23
e 12 24
e 12 25
e 12 26
e 12 28
e 12 30
e 12 32
e 12 33
e 12 38
e 12 40
e 12 42
e 12 44
e 12 54
e 12 56
e 12 71
e 12 77
e 12 81
e 12 84
e 12 88
e 12 100
e 13 17
e 13 18
e 13 19
e 13 21
e 13 24
e 13 27
e 13 31
e 13 39
e 13 41
e 13 42
e 13 43
e 13 44
e 13 58
e 13 68
e 13 74
e 13 81
e 13 97
e 13 98
e 14 17
e 14 18
e 14 20
e 14 22
e 14 30
e 14 32
e 14 33
e 14 35
e 14 37
e 14 41
e 14 61
e 14 62
e 14 64
e 14 81
e 14 88
e 14 95
e 14 97
e 15 17
e 15 18
e 15 19
e 15 20
e 15 21
e 15 22
e 15 23
e 15 24
e 15 25
e 15 26
e 15 27
e 15 28
e 15 29
e 15 34
e 15 35
e 15 37
e 15 40
e 15 42
e 15 43
e 15 46
e 15 52
e 15 57
e 15 63
e 15 65
e 15 67
e 15 78
e 15 79
e 15 92
e 15 94
e 15 95
e 16 17
e 16 18
e 16 19
e 16 20
e 16 22
e 16 23
e 16 25
e 16 26
e 16 27
e 16 28
e 16 31
e 16 32
e 16 34
e 16 37
e 16 38
e 16 41
e 16 45
e 16 51
e 16 55
e 16 58
e 16 63
e 16 68
e 16 71
e 16 72
e 16 75
e 16 81
e 16 88
e 16 89
e 16 91
e 16 93
e 17 18
e 17 19
e 17 20
e 17 21
e 17 22
e 17 23
e 17 24
e 17 25
e 17 26
e 17 27
e 17 28
e 17 29
e 17 30
e 17 31
e 17 32
e 17 33
e 17 34
e 17 35
e 17 36
e 17 37
e 17 38
e 17 39
e 17 42
e 17 43
e 17 45
e 17 46
e 17 48
e 17 50
e 17 51
e 17 52
e 17 53
e 17 54
e 17 55
e 17 58
e 17 62
e 17 64
e 17 65
e 17 67
e 17 69
e 17 71
e 17 74
e 17 75
e 17 78
e 17 80
e 17 86
e 17 89
e 17 95
e 17 96
e 17 97
e 17 98
e 17 99
e 17 100
e 18 19
e 18 20
e 18 21
e 18 22
e 18 24
e 18 25
e 18 26
e 18 27
e 18 28
e 18 29
e 18 31
e 18 33
e 18 34
e 18 35
e 18 36
e 18 38
e 18 40
e 18 41
e 18 42
e 18 43
e 18 45
e 18 46
e 18 47
e 18 49
e 18 51
e 18 58
e 18 63
e 18 66
e 18 68
e 18 76
e 18 77
e 18 82
e 18 83
e 18 84
e 18 85
e 18 86
e 19 20
e 19 21
e 19 22
e 19 23
e 19 24
e 19 25
e 19 26
e 19 27
e 19 28
e 19 29
e 19 31
e 19 32
e 19 33
e 19 34
e 19 35
e 19 37
e 19 38
e 19 39
e 19 40
e 19 41
e 19 43
e 19 44
e 19 45
e 19 47
e 19 48
e 19 49
e 19 50
e 19 51
e 19 53
e 19 54
e 19 57
e 19 60
e 19 66
e 19 67
e 19 68
e 19 73
e 19 75
e 19 77
e 19 79
e 19 86
e 19 88
e 19 91
e 19 93
e 19 96
e 19 97
e 20 21
e 20 22
e 20 23
e 20 24
e 20 25
e 20 26
e 20 27
e 20 28
e 20 29
e 20 30
e 20 33
e 20 34
e 20 35
e 20 36
e 20 39
e 20 40
e 20 41
e 20 42
e 20 43
e 20 44
e 20 45
e 20 46
e 20 47
e 20 48
e 20 49
e 20 52
e 20 53
e 20 54
e 20 59
e 20 60
e 20 61
e 20 72
e 20 82
e 20 83
e 20 84
e 20 86
e 20 90
e 20 92
e 20 97
e 20 99
e 20 100
e 21 22
e 21 23
e 21 24
e 21 25
e 21 26
e 21 27
e 21 28
e 21 29
e 21 30
e 21 33
e 21 35
e 21 36
e 21 40
e 21 41
e 21 42
e 21 47
e 21 48
e 21 49
e 21 52
e 21 53
e 21 55
e 21 57
e 21 58
e 21 59
e 21 60
e 21 61
e 21 64
e 21 65
e 21 70
e 21 72
e 21 73
e 21 74
e 21 77
e 21 78
e 21 79
e 21 81
e 21 83
e 21 86
e 21 87
e 21 89
e 21 91
e 21 93
e 21 97
e 21 98
e 21 100
e 22 23
e 22 24
e 22 25
e 22 26
e 22 27
e 22 28
e 22 29
e 22 30
e 22 31
e 22 33
e 22 34
e 22 35
e 22 36
e 22 37
e 22 38
e 22 40
e 22 41
e 22 43
e 22 47
e 22 48
e 22 49
e 22 51
e 22 53
e 22 56
e 22 57
e 22 58
e 22 62
e 22 65
e 22 68
e 22 69
e 22 72
e 22 80
e 22 85
e 22 87
e 22 91
e 22 98
e 23 24
e 23 25
e 23 26
e 23 27
e 23 28
e 23 29
e 23 30
e 23 31
e 23 32
e 23 33
e 23 34
e 23 35
e 23 36
e 23 37
e 23 38
e 23 39
e 23 40
e 23 41
e 23 42
e 23 43
e 23 44
e 23 45
e 23 47
e 23 49
e 23 50
e 23 52
e 23 55
e 23 56
e 23 57
e 23 59
e 23 60
e 23 61
e 23 64
e 23 65
e 23 66
e 23 67
e 23 68
e 23 69
e 23 70
e 23 71
e 23 72
e 23 74
e 23 78
e 23 80
e 23 81
e 23 83
e 23 85
e 23 86
e 23 87
e 23 89
e 23 96
e 23 100
e 24 25
e 24 27
e 24 28
e 24 29
e 24 30
e 24 31
e 24 32
e 24 33
e 24 34
e 24 36
e 24 38
e 24 41
e 24 47
e 24 48
e 24 52
e 24 59
e 24 61
e 24 62
e 24 65
e 24 66
e 24 67
e 24 68
e 24 71
e 24 72
e 24 74
e 24 76
e 24 78
e 24 82
e 24 86
e 24 93
e 24 96
e 25 26
e 25 29
e 25 31
e 25 32
e 25 34
e 25 35
e 25 37
e 25 39
e 25 40
e 25 41
e 25 42
e 25 44
e 25 46
e 25 47
e 25 48
e 25 49
e 25 50
e 25 51
e 25 52
e 25 56
e 25 57
e 25 59
e 25 60
e 25 61
e 25 64
e 25 66
e 25 67
e 25 73
e 25 79
e 25 83
e 25 91
e 25 92
e 25 93
e 25 96
e 25 99
e 26 27
e 26 28
e 26 30
e 26 31
e 26 34
e 26 35
e 26 36
e 26 37
e 26 38
e 26 44
e 26 46
e 26 47
e 26 55
e 26 56
e 26 60
e 26 64
e 26 65
e 26 66
e 26 67
e 26 68
e 26 69
e 26 70
e 26 72
e 26 74
e 26 76
e 26 82
e 26 85
e 26 100
e 27 28
e 27 29
e 27 30
e 27 31
e 27 32
e 27 33
e 27 34
e 27 38
e 27 44
e 27 45
e 27 49
e 27 52
e 27 54
e 27 59
e 27 60
e 27 61
e 27 63
e 27 64
e 27 65
e 27 66
e 27 73
e 27 84
e 27 87
e 27 92
e 27 95
e 27 98
e 28 29
e 28 30
e 28 31
e 28 38
e 28 41
e 28 45
e 28 47
e 28 48
e 28 50
e 28 51
e 28 52
e 28 60
e 28 62
e 28 63
e 28 69
e 28 71
e 28 95
e 29 31
e 29 33
e 29 36
e 29 38
e 29 39
e 29 42
e 29 43
e 29 46
e 29 51
e 29 52
e 29 56
e 29 58
e 29 60
e 29 69
e 29 72
e 29 81
e 29 90
e 29 99
e 30 31
e 30 32
e 30 35
e 30 36
e 30 37
e 30 41
e 30 43
e 30 44
e 30 47
e 30 53
e 30 54
e 30 55
e 30 56
e 30 62
e 30 63
e 30 70
e 30 74
e 30 86
e 30 98
e 31 33
e 31 36
e 31 38
e 31 40
e 31 42
e 31 44
e 31 45
e 31 46
e 31 48
e 31 50
e 31 52
e 31 53
e 31 55
e 31 59
e 31 64
e 31 69
e 31 70
e 31 71
e 31 73
e 31 76
e 31 83
e 31 94
e 31 98
e 32 37
e 32 43
e 32 48
e 32 53
e 32 56
e 32 60
e 32 73
e 32 80
e 32 84
e 32 88
e 32 97
e 32 98
e 33 34
e 33 35
e 33 36
e 33 37
e 33 39
e 33 44
e 33 46
e 33 48
e 33 50
e 33 52
e 33 55
e 33 57
e 33 59
e 33 61
e 33 68
e 33 70
e 33 73
e 33 75
e 33 78
e 33 79
e 33 83
e 33 84
e 33 91
e 33 95
e 34 35
e 34 39
e 34 42
e 34 46
e 34 55
e 34 56
e 34 61
e 34 63
e 34 64
e 34 69
e 34 73
e 34 74
e 34 78
e 34 83
e 34 85
e 34 96
e 35 37
e 35 38
e 35 39
e 35 40
e 35 42
e 35 43
e 35 46
e 35 48
e 35 49
e 35 50
e 35 51
e 35 56
e 35 57
e 35 62
e 35 67
e 35 68
e 35 78
e 35 80
e 35 82
e 35 86
e 35 88
e 35 92
e 35 93
e 35 94
e 36 39
e 36 40
e 36 41
e 36 44
e 36 46
e 36 61
e 36 64
e 36 66
e 36 67
e 36 75
e 36 78
e 36 81
e 36 87
e 37 38
e 37 44
e 37 48
e 37 51
e 37 57
e 37 58
e 37 61
e 37 67
e 37 70
e 37 76
e 37 80
e 37 82
e 37 83
e 37 88
e 37 93
e 37 96
e 37 97
e 37 98
e 37 99
e 38 40
e 38 45
e 38 47
e 38 48
e 38 51
e 38 54
e 38 56
e 38 61
e 38 69
e 38 71
e 38 76
e 38 78
e 39 43
e 39 47
e 39 49
e 39 53
e 39 56
e 39 63
e 39 65
e 39 73
e 39 77
e 39 78
e 39 82
e 39 84
e 39 89
e 40 43
e 40 44
e 40 50
e 40 54
e 40 64
e 40 66
e 40 70
e 40 74
e 40 75
e 40 82
e 40 84
e 40 87
e 40 94
e 40 95
e 40 100
e 41 46
e 41 47
e 41 51
e 41 53
e 41 55
e 41 57
e 41 60
e 41 64
e 41 70
e 41 77
e 41 79
e 41 80
e 41 82
e 41 83
e 41 88
e 41 90
e 41 100
e 42 45
e 42 46
e 42 50
e 42 51
e 42 54
e 42 62
e 42 64
e 42 66
e 42 67
e 42 68
e 42 80
e 42 85
e 42 91
e 42 93
e 42 94
e 43 44
e 43 49
e 43 55
e 43 71
e 43 76
e 43 83
e 43 84
e 43 85
e 43 90
e 43 97
e 44 45
e 44 46
e 44 48
e 44 51
e 44 57
e 44 62
e 44 63
e 44 66
e 44 69
e 44 71
e 44 78
e 44 79
e 44 88
e 44 94
e 45 51
e 45 52
e 45 54
e 45 58
e 45 63
e 45 67
e 45 74
e 45 75
e 45 85
e 45 87
e 45 94
e 45 99
e 46 49
e 46 50
e 46 59
e 46 60
e 46 70
e 46 85
e 46 86
e 46 90
e 46 92
e 47 50
e 47 52
e 47 61
e 47 67
e 47 69
e 47 73
e 47 87
e 47 91
e 47 96
e 47 97
e 48 52
e 48 54
e 48 55
e 48 57
e 48 58
e 48 59
e 48 60
e 48 62
e 48 64
e 48 75
e 48 87
e 48 92
e 49 54
e 49 59
e 49 60
e 49 62
e 49 63
e 49 68
e 49 69
e 49 70
e 49 87
e 49 88
e 49 95
e 50 53
e 50 54
e 50 56
e 50 59
e 50 61
e 50 62
e 50 70
e 50 73
e 50 76
e 50 79
e 50 81
e 50 82
e 50 92
e 50 94
e 51 52
e 51 55
e 51 60
e 51 63
e 51 66
e 51 71
e 51 74
e 51 86
e 51 91
e 51 92
e 52 54
e 52 57
e 52 58
e 52 59
e 52 66
e 52 69
e 52 72
e 52 77
e 52 89
e 52 90
e 52 92
e 52 93
e 52 95
e 52 96
e 52 99
e 53 58
e 53 60
e 53 65
e 53 76
e 53 88
e 54 55
e 54 59
e 54 61
e 54 63
e 54 65
e 54 70
e 54 71
e 54 76
e 54 84
e 54 87
e 54 95
e 55 62
e 55 65
e 55 69
e 55 74
e 55 80
e 55 90
e 55 95
e 55 100
e 56 66
e 56 77
e 56 80
e 56 90
e 56 91
e 56 92
e 57 64
e 57 72
e 57 76
e 57 84
e 57 86
e 57 87
e 58 59
e 58 63
e 58 65
e 58 68
e 58 70
e 58 87
e 58 89
e 58 92
e 58 96
e 58 100
e 59 71
e 59 73
e 59 77
e 59 87
e 59 91
e 59 97
e 59 99
e 60 63
e 60 68
e 60 70
e 60 71
e 60 73
e 60 75
e 60 81
e 61 68
e 61 75
e 61 76
e 61 77
e 61 88
e 61 99
e 62 64
e 62 75
e 62 79
e 62 82
e 62 94
e 62 100
e 63 67
e 63 73
e 63 75
e 63 85
e 64 72
e 64 79
e 64 94
e 64 98
e 64 99
e 65 72
e 65 80
e 65 82
e 65 95
e 65 97
e 66 74
e 66 82
e 66 93
e 66 99
e 66 100
e 67 76
e 67 77
e 67 79
e 67 84
e 67 89
e 67 100
e 68 71
e 68 77
e 68 80
e 68 81
e 68 89
e 68 91
e 69 72
e 69 73
e 69 74
e 69 75
e 69 83
e 69 86
e 69 89
e 69 94
e 70 76
e 70 78
e 70 84
e 70 92
e 70 93
e 70 94
e 71 74
e 71 75
e 71 79
e 71 84
e 71 90
e 72 73
e 72 74
e 72 82
e 72 84
e 72 85
e 72 91
e 72 93
e 72 98
e 74 77
e 74 79
e 74 81
e 74 98
e 74 99
e 75 76
e 75 77
e 75 80
e 75 81
e 75 89
e 75 91
e 75 95
e 76 82
e 76 84
e 76 87
e 76 92
e 76 97
e 77 83
e 77 90
e 78 90
e 78 100
e 79 92
e 79 99
e 80 81
e 80 83
e 80 85
e 80 90
e 80 93
e 81 86
e 81 88
e 82 83
e 82 99
e 83 86
e 83 98
e 84 94
e 84 95
e 86 89
e 86 91
e 86 95
e 86 100
e 87 88
e 88 95
e 89 90
e 91 100
e 92 96
e 93 94
e 93 98
e 94 96
e 94 99
